22      4       
15      16      16      16      
0       0       0       0       0       3       2       3       4       
4       7       5       9       5       1       7       
2       7       3       4       1       2       6       8       
10      4       5       9       3       2       5       8       
4       9       5       10      9       1       6       
1       6       1       7       4       1       9       
9       1       9       4       4       1       16      
7       7       8       6       4       1       19      
10      1       6       3       7       1       10      
3       8       10      1       4       1       11      
9       9       8       3       10      2       12      21      
1       9       9       3       5       1       13      
3       1       1       2       4       2       14      20      
8       10      10      8       3       1       15      
5       1       8       5       10      1       18      
10      7       1       1       2       1       17      
8       1       7       8       10      1       20      
10      10      5       7       6       1       22      
7       9       8       7       4       1       22      
1       3       9       9       2       1       22      
5       9       8       3       9       1       22      
0       0       0       0       0       0       
